unsat
(:binary-propagations  9
 :conflicts            1
 :final-checks         1
 :max-generation       1
 :max-memory           22.85
 :memory               20.76
 :mk-bool-var          159
 :mk-clause            40
 :mk-clause-binary     176
 :num-allocs           3475335
 :num-checks           1
 :propagations         9
 :quant-instantiations 25
 :restarts             1
 :rlimit-count         34460
 :time                 0.01)
